; benchmark generated from python API
(set-info :status unknown)
(declare-fun L_2 () Real)
(declare-fun S_2 () Real)
(declare-fun A_2 () Real)
(declare-fun L_1 () Real)
(declare-fun S_1 () Real)
(declare-fun A_1 () Real)
(declare-fun S_4 () Real)
(declare-fun L_3 () Real)
(declare-fun A_4 () Real)
(declare-fun Q_4 () Real)
(declare-fun S_3 () Real)
(declare-fun A_3 () Real)
(declare-fun L_0 () Real)
(declare-fun S_0 () Real)
(declare-fun A_0 () Real)
(assert
 (let (($x34 (>= L_0 0.0)))
 (let (($x97983 (<= (+ (* (- 1.0) A_3) L_3 (* (/ 3.0 2.0) S_2) (* (- (/ 1.0 2.0)) S_1)) (- 5.0))))
 (let ((?x432 (* (- 1.0) L_3)))
 (let ((?x473 (+ L_2 ?x432)))
 (let (($x79653 (<= 0.0 ?x473)))
 (let ((?x14759 (* (- (/ 3.0 2.0)) L_1)))
 (let ((?x947 (* (- 1.0) S_0)))
 (let ((?x3182 (* (/ 3.0 2.0) L_3)))
 (let ((?x11004 (* (/ 3.0 2.0) A_1)))
 (let ((?x11020 (* (- (/ 3.0 2.0)) A_3)))
 (let (($x50464 (<= (+ ?x11020 ?x11004 ?x3182 S_2 ?x947 ?x14759) 0.0)))
 (let ((?x458 (* (- 1.0) L_1)))
 (let ((?x1041 (* (- 2.0) L_2)))
 (let ((?x373 (* (- 1.0) S_4)))
 (let ((?x1045 (* 2.0 A_2)))
 (let ((?x358 (* (- 1.0) A_3)))
 (let (($x13093 (<= (+ ?x358 ?x1045 A_1 L_3 ?x373 ?x1041 ?x947 ?x458) 0.0)))
 (let (($x96663 (<= (+ ?x358 (* (- (/ 1.0 2.0)) A_0) L_3 (* (/ 3.0 2.0) S_2) (* (/ 1.0 2.0) L_0)) (- 5.0))))
 (let (($x84490 (<= (+ (* (- 2.0) A_3) ?x1045 A_1 (* 2.0 L_3) ?x1041 ?x947 ?x458) (- 5.0))))
 (let ((?x1728 (* (- 5.0) L_1)))
 (let ((?x3441 (* (- 2.0) S_0)))
 (let ((?x1727 (* 5.0 A_1)))
 (let ((?x2684 (* (- 5.0) A_3)))
 (let ((?x1291 (* 3.0 L_3)))
 (let ((?x3774 (* 2.0 A_4)))
 (let ((?x2385 (* (- 2.0) Q_4)))
 (let (($x5737 (<= (+ ?x2385 ?x3774 ?x1291 ?x2684 ?x1727 ?x3441 ?x1728) 0.0)))
 (let (($x1012 (>= Q_4 5.0)))
 (let (($x94104 (<= (+ ?x358 (* (- 2.0) A_0) L_3 (* 3.0 S_1) (* 2.0 L_0)) (- 5.0))))
 (let ((?x445 (* (- 1.0) L_2)))
 (let ((?x887 (* (- 1.0) A_0)))
 (let ((?x21431 (+ ?x358 A_2 ?x887 L_3 ?x445 S_1 L_0)))
 (let ((?x6626 (* 2.0 L_0)))
 (let ((?x3216 (* 2.0 S_1)))
 (let ((?x20961 (* (- 2.0) A_0)))
 (let (($x12550 (<= (+ ?x358 A_2 A_1 ?x887 L_3 ?x445 L_0 ?x458) 0.0)))
 (let ((?x1116 (* 3.0 L_2)))
 (let ((?x1149 (* (- 3.0) L_1)))
 (let ((?x406 (* (- 1.0) S_1)))
 (let ((?x1148 (* 3.0 A_1)))
 (let ((?x1120 (* (- 3.0) A_2)))
 (let (($x893 (= (+ L_2 ?x458) 0.0)))
 (let (($x88627 (<= (+ (* (- 1.0) A_2) (* (/ 1.0 2.0) S_3) (* (/ 1.0 2.0) S_1) L_2) (- 5.0))))
 (let ((?x1102 (* (- 2.0) L_1)))
 (let ((?x1423 (* 2.0 L_3)))
 (let ((?x1108 (* 2.0 A_1)))
 (let ((?x1412 (* (- 2.0) A_3)))
 (let (($x57526 (<= (+ ?x1412 ?x1108 ?x1423 S_3 ?x947 ?x1102) 0.0)))
 (let (($x214562 (or $x893 (<= (+ (* (- 1.0) A_2) A_1 ?x458 L_2) (- 10.0)) (<= (+ (* (- 1.0) A_2) S_0 L_2) (- 15.0)))))
 (let (($x97771 (<= (+ (* (- 1.0) A_2) (* (/ 3.0 2.0) S_1) (* (- (/ 1.0 2.0)) S_0) L_2) (- 5.0))))
 (let ((?x3180 (* (- (/ 1.0 2.0)) S_0)))
 (let ((?x21138 (* (/ 1.0 2.0) S_1)))
 (let ((?x36377 (+ ?x358 A_2 L_3 ?x445 ?x21138 ?x3180)))
 (let (($x212085 (or $x79653 (<= (+ ?x358 (* (- 1.0) A_1) L_3 L_1 (* 2.0 S_2)) (- 5.0)))))
 (let (($x220650 (or $x79653 (<= (+ ?x358 L_3 (* (/ 4.0 3.0) S_2) (* (- (/ 1.0 3.0)) S_0)) (- 5.0)))))
 (let ((?x1386 (* (- 4.0) L_2)))
 (let ((?x2712 (* 4.0 L_3)))
 (let ((?x1395 (* 4.0 A_2)))
 (let ((?x2632 (* (- 4.0) A_3)))
 (let ((?x1158 (* (- 3.0) L_2)))
 (let ((?x1157 (* 3.0 A_2)))
 (let ((?x1398 (* (- 3.0) A_3)))
 (let (($x48606 (<= (+ ?x358 A_1 L_3 S_1 ?x947 ?x458) 0.0)))
 (let (($x876 (<= (+ A_2 (* (- 1.0) S_3) ?x445) 0.0)))
 (let (($x13085 (<= (+ ?x1412 ?x1045 ?x1108 ?x1423 ?x1041 (* (- 1.0) S_2) ?x947 ?x1102) 0.0)))
 (let (($x219687 (or (<= (+ ?x1412 ?x1045 (* (- 1.0) A_1) ?x1423 S_3 L_1 ?x1041) 0.0) $x79653)))
 (let (($x213610 (or (<= (+ ?x358 A_2 (* (- 1.0) A_1) L_3 S_2 L_1 ?x445) 0.0) $x79653)))
 (let (($x217709 (or (<= (+ ?x1412 ?x1045 ?x1423 S_3 (* (- 1.0) S_2) ?x1041) 0.0) $x79653)))
 (let (($x23482 (<= (+ ?x2385 ?x3774 ?x1412 (* (- 1.0) S_3) S_0) 0.0)))
 (let (($x20931 (<= (+ A_3 A_1 (* (- 2.0) S_3) ?x2385 ?x458 ?x432) 0.0)))
 (let (($x5738 (<= (+ (* (- 1.0) Q_4) A_4 ?x358 A_1 (* (- 1.0) S_3) ?x458) 0.0)))
 (let (($x12281 (<= (+ ?x358 A_2 A_1 L_3 ?x445 ?x406 ?x458) 0.0)))
 (let (($x84698 (<= (+ Q_4 (* (- 1.0) A_4) L_3 A_2 ?x445) (- 10.0))))
 (let (($x84224 (<= (+ Q_4 (* (- 1.0) A_4) A_3) (- 5.0))))
 (let ((?x7382 (* (/ 1.0 4.0) S_0)))
 (let ((?x7393 (* (/ 1.0 4.0) L_3)))
 (let ((?x7392 (* (- (/ 1.0 4.0)) A_4)))
 (let ((?x7391 (* (/ 1.0 4.0) Q_4)))
 (let (($x985 (<= Q_4 0.0)))
 (let (($x219152 (or $x985 (<= (+ ?x458 Q_4 (* (- 1.0) A_4) L_3 A_1) (- 15.0)) (<= (+ ?x7391 ?x7392 ?x7393 ?x7382) (- 5.0)) $x84224 $x84698)))
 (let (($x216773 (or $x985 $x84224 $x84698 (not (<= 0.0 (+ (* (- 1.0) Q_4) A_4 ?x432 ?x1120 ?x3216 ?x1116))))))
 (let (($x5407 (<= (+ ?x1102 (* (- 1.0) Q_4) A_4 ?x432 ?x1108 (* (- 3.0) S_3)) 0.0)))
 (let ((?x3196 (* (/ 1.0 2.0) S_0)))
 (let ((?x384 (* (- 1.0) S_3)))
 (let ((?x3200 (* (- (/ 1.0 2.0)) L_3)))
 (let ((?x3191 (* (/ 1.0 2.0) A_4)))
 (let ((?x3202 (* (- (/ 1.0 2.0)) Q_4)))
 (let (($x3206 (<= (+ ?x3202 ?x3191 ?x3200 ?x384 ?x3196) 0.0)))
 (let (($x40809 (<= (+ (* (- 2.0) A_2) (* 2.0 L_2) S_4 S_0 (* 2.0 Q_4)) 0.0)))
 (let (($x214846 (or $x893 (<= (+ ?x1102 ?x1120 ?x1116 ?x1108 S_4 (* 3.0 Q_4)) 0.0) $x40809)))
 (let (($x96725 (<= 0.0 (+ A_3 (* (- 1.0) A_2) (* (- 1.0) A_1) ?x432 S_0 L_1 L_2))))
 (let ((?x1032 (* 2.0 L_2)))
 (let ((?x1039 (* (- 2.0) A_2)))
 (let ((?x7075 (+ A_3 ?x1039 A_1 ?x432 ?x458 ?x1032)))
 (let (($x94561 (<= (+ (* 2.0 A_3) ?x1120 (* (- 2.0) L_3) S_0 ?x1116) (- 5.0))))
 (let (($x58696 (<= (+ ?x1398 ?x1148 ?x1291 (* 2.0 S_3) (* (- 2.0) S_1) ?x1149) 0.0)))
 (let ((?x15138 (* (/ 1.0 2.0) L_1)))
 (let ((?x395 (* (- 1.0) S_2)))
 (let ((?x11862 (* (- (/ 1.0 2.0)) A_1)))
 (let ((?x9029 (* (/ 1.0 2.0) A_3)))
 (let (($x895 (= (+ L_1 (* (- 1.0) L_0)) 0.0)))
 (let ((?x3207 (* (/ 1.0 2.0) Q_4)))
 (let ((?x18410 (* (/ 1.0 2.0) L_2)))
 (let ((?x18214 (* (- (/ 1.0 2.0)) A_2)))
 (let (($x36704 (<= (+ ?x458 (* (- 1.0) A_2) L_2 A_1 ?x358 L_3 S_4 Q_4) 0.0)))
 (let (($x9045 (<= (+ ?x1157 ?x1158 (* (- 2.0) S_4) ?x406 (* (- 3.0) Q_4)) 0.0)))
 (let (($x7359 (<= (+ (* (- (/ 3.0 4.0)) Q_4) (* (/ 3.0 4.0) A_4) (* (- (/ 3.0 4.0)) L_3) ?x373 ?x7382) 0.0)))
 (let (($x5331 (<= (+ ?x458 ?x2385 ?x3774 (* (- 2.0) L_3) A_1 (* (- 3.0) S_4)) 0.0)))
 (let (($x870 (<= (+ A_3 ?x432 ?x373) 0.0)))
 (let (($x62085 (<= (+ (* 3.0 A_3) ?x1120 (* (- 3.0) L_3) ?x373 S_0 ?x1116) 0.0)))
 (let (($x36588 (<= (+ (* 2.0 A_3) ?x1039 A_1 (* (- 2.0) L_3) ?x373 ?x458 ?x1032) 0.0)))
 (let (($x61142 (<= (+ (* 2.0 A_3) ?x1039 (* (- 2.0) L_3) ?x373 S_1 ?x1032) 0.0)))
 (let ((?x3181 (* 2.0 S_3)))
 (let ((?x362 (* (- 1.0) A_2)))
 (let ((?x354 (* (- 1.0) A_4)))
 (let ((?x2266 (* 2.0 Q_4)))
 (let (($x215667 (or $x895 $x79653 (<= (+ (* (- (/ 1.0 2.0)) A_3) ?x11862 (* (/ 1.0 2.0) L_3) S_2 ?x15138) (- 5.0)))))
 (let (($x100046 (or $x895 (<= (+ ?x362 (* (- 1.0) A_1) S_3 L_2 S_0 L_1) (- 5.0)))))
 (let (($x211648 (or (<= (+ ?x1045 ?x1041 ?x1412 S_1 ?x947 ?x2266 ?x1423) 0.0) (<= (+ ?x358 ?x3216 ?x947 Q_4 L_3) 0.0) $x79653)))
 (let ((?x1145 (* 2.0 L_1)))
 (let ((?x3558 (* 2.0 S_0)))
 (let ((?x3327 (* (- 2.0) S_3)))
 (let ((?x1390 (* (- 2.0) L_3)))
 (let ((?x1144 (* (- 2.0) A_1)))
 (let ((?x1384 (* 2.0 A_3)))
 (let (($x215085 (or $x876 $x895 (<= (+ A_3 (* (- 1.0) A_1) ?x432 ?x3327 ?x3216 L_1) 0.0))))
 (let (($x213542 (or $x895 (<= (+ ?x9029 (* (- (/ 3.0 2.0)) A_1) ?x3200 S_0 (* (/ 3.0 2.0) L_1)) (- 5.0)))))
 (let (($x39289 (<= (+ ?x458 A_1 ?x1398 (* 2.0 S_4) (* 3.0 Q_4) ?x1291) 0.0)))
 (let ((?x15665 (* (/ 1.0 3.0) S_0)))
 (let (($x25006 (<= (+ (* (- (/ 4.0 3.0)) A_3) S_4 ?x15665 (* (/ 4.0 3.0) Q_4) (* (/ 4.0 3.0) L_3)) 0.0)))
 (let (($x17384 (<= (+ A_2 ?x445 ?x1412 S_4 ?x2266 ?x1423) 0.0)))
 (let (($x86874 (<= (+ (* (- (/ 1.0 3.0)) A_3) ?x15665 (* (/ 1.0 3.0) Q_4) (* (/ 1.0 3.0) L_3)) (- 5.0))))
 (let (($x85421 (<= (+ A_2 ?x445 ?x358 Q_4 L_3) (- 5.0))))
 (let (($x220667 (or $x876 (<= (+ ?x458 A_1 ?x358 L_3 S_4 ?x384) 0.0) (<= (+ ?x358 L_3 S_4 (* (- (/ 1.0 2.0)) S_3) ?x3196) 0.0))))
 (let (($x37728 (<= (+ L_1 (* (- 1.0) A_1) ?x358 (* 2.0 S_2) Q_4 L_3) 0.0)))
 (let (($x101795 (or $x17384 (<= (+ ?x11020 S_4 ?x21138 (* (/ 3.0 2.0) Q_4) ?x3182) 0.0) $x79653)))
 (let ((?x3209 (* (/ 1.0 2.0) L_3)))
 (let ((?x19271 (* (/ 3.0 2.0) S_1)))
 (let ((?x11802 (* (- (/ 1.0 2.0)) A_3)))
 (let (($x102263 (or (<= (+ A_2 ?x445 ?x358 ?x887 S_1 Q_4 L_0 L_3) 0.0) (<= (+ ?x11802 ?x887 ?x19271 ?x3207 L_0 ?x3209) 0.0) $x79653)))
 (let (($x9057 (<= (+ ?x1395 ?x1386 (* (- 3.0) S_4) ?x947 (* (- 4.0) Q_4)) 0.0)))
 (let (($x80993 (not $x79653)))
 (let (($x213773 (or $x895 (<= (+ A_3 (* (- 1.0) A_1) ?x384 S_0 L_1 ?x445) 0.0) $x80993)))
 (let (($x39556 (<= (+ (* (- (/ 3.0 2.0)) A_2) (* (/ 3.0 2.0) L_2) S_3 ?x3196 (* (/ 3.0 2.0) Q_4)) 0.0)))
 (let (($x107390 (or $x893 (<= (+ ?x458 ?x362 L_2 A_1 Q_4) (- 5.0)) (<= (+ ?x18214 ?x18410 ?x3196 ?x3207) (- 5.0)))))
 (let (($x1721 (<= (+ (* (- 1.0) Q_4) A_4 ?x432 ?x362 A_1 ?x373 ?x458 L_2) 0.0)))
 (let (($x2371 (<= (+ L_1 ?x1045 ?x1041 (* (- 1.0) A_1) ?x373 ?x2385) 0.0)))
 (let (($x9064 (<= (+ ?x1157 ?x1158 ?x887 (* (- 2.0) S_4) (* (- 3.0) Q_4) L_0) 0.0)))
 (let (($x219549 (or (<= (+ ?x1398 (* 4.0 S_2) ?x947 (* 3.0 Q_4) ?x1291) 0.0) $x79653)))
 (let ((?x3781 (* 3.0 S_3)))
 (let ((?x366 (* (- 1.0) A_1)))
 (let ((?x3779 (* (- 2.0) A_4)))
 (let ((?x2382 (* 3.0 Q_4)))
 (let (($x88475 (<= (+ (* (- (/ 1.0 2.0)) L_1) (* (/ 1.0 2.0) A_1) (* (- (/ 1.0 2.0)) S_4)) (- 5.0))))
 (let (($x83712 (<= (+ A_2 ?x445 ?x373 (* (- 1.0) Q_4)) (- 5.0))))
 (let (($x19672 (<= (+ ?x1148 ?x3327 ?x947 (* (- 3.0) Q_4) ?x1149) 0.0)))
 (let (($x10718 (<= (+ (* (- 1.0) Q_4) A_4 ?x358 ?x384 S_1) 0.0)))
 (let ((?x7534 (* (/ 1.0 3.0) S_1)))
 (let ((?x7298 (* (- (/ 2.0 3.0)) L_3)))
 (let ((?x7550 (* (/ 2.0 3.0) A_4)))
 (let ((?x7533 (* (- (/ 2.0 3.0)) Q_4)))
 (let (($x7539 (<= (+ ?x7533 ?x7550 ?x7298 ?x373 ?x7534) 0.0)))
 (let (($x11797 (<= (+ A_2 ?x373 ?x445) (- 5.0))))
 (let (($x1055 (<= (+ ?x1045 ?x1041 ?x366 ?x373 (* (- 1.0) Q_4) L_1) 0.0)))
 (let (($x85040 (<= (+ (* (/ 1.0 2.0) A_1) (* (- (/ 1.0 2.0)) S_4) ?x3202 (* (- (/ 1.0 2.0)) L_1)) (- 5.0))))
 (let (($x3678 (<= (+ ?x3202 ?x3191 ?x3200 ?x373 (* (/ 1.0 2.0) S_2)) 0.0)))
 (let (($x101623 (or $x893 $x1012 (<= (+ (* (- 1.0) Q_4) A_4 ?x358 ?x362 A_1 ?x458 L_2) (- 5.0)) (<= (+ ?x2385 ?x3774 ?x1412 ?x362 S_0 L_2) (- 5.0)))))
 (let (($x216814 (or $x893 (<= (+ ?x1039 A_1 S_3 ?x458 ?x1032) (- 10.0)) (<= (+ ?x362 (* (/ 2.0 3.0) S_3) ?x15665 L_2) (- 5.0)))))
 (let (($x3806 (<= (+ ?x2382 (* (- 3.0) A_4) ?x1291 ?x887 (* 4.0 S_3) L_0) 0.0)))
 (let (($x40185 (<= (+ (* (/ 1.0 2.0) A_2) (* (- (/ 1.0 2.0)) L_2) ?x395 ?x3196 ?x3202) 0.0)))
 (let ((?x7371 (* (/ 3.0 4.0) S_0)))
 (let ((?x7356 (* (- (/ 1.0 4.0)) L_3)))
 (let ((?x7383 (* (/ 1.0 4.0) A_4)))
 (let ((?x7389 (* (- (/ 1.0 4.0)) Q_4)))
 (let (($x7365 (<= (+ ?x7389 ?x7383 ?x7356 ?x395 ?x7371) 0.0)))
 (let (($x882 (<= (+ A_1 ?x395 ?x458) 0.0)))
 (let (($x20891 (<= (+ ?x1108 S_4 (* (- 3.0) S_3) ?x2385 ?x1102) 0.0)))
 (let (($x215077 (or $x895 (<= (+ ?x366 (* (/ 1.0 3.0) S_3) (* (/ 2.0 3.0) S_0) L_1) (- 5.0)))))
 (let (($x34397 (<= (+ ?x1045 ?x1041 A_1 (* (- 2.0) S_4) ?x947 (* (- 1.0) Q_4) ?x458) 0.0)))
 (let (($x15155 (<= (+ ?x1108 ?x373 ?x947 ?x2385 ?x1102) 0.0)))
 (let (($x14133 (<= (+ (* (- 1.0) Q_4) A_4 ?x432 A_2 ?x445 (* (- 2.0) S_4)) 0.0)))
 (let (($x19638 (<= (+ ?x1108 ?x887 ?x384 ?x2385 L_0 ?x1102) 0.0)))
 (let ((?x7191 (* (/ 2.0 3.0) S_1)))
 (let ((?x7552 (* (- (/ 1.0 3.0)) L_3)))
 (let ((?x7558 (* (/ 1.0 3.0) A_4)))
 (let ((?x7554 (* (- (/ 1.0 3.0)) Q_4)))
 (let (($x7289 (<= (+ ?x7554 ?x7558 ?x7552 ?x384 ?x7191) 0.0)))
 (let (($x34370 (<= (+ A_2 ?x445 A_1 ?x887 ?x373 (* (- 1.0) Q_4) L_0 ?x458) 0.0)))
 (let (($x14764 (<= (+ ?x11004 ?x887 (* (- (/ 1.0 2.0)) S_4) (* (- (/ 3.0 2.0)) Q_4) L_0 ?x14759) 0.0)))
 (let (($x213609 (or $x893 (<= (+ A_3 ?x362 A_1 ?x432 ?x384 ?x458 L_2) 0.0) (<= (+ ?x1384 ?x1039 ?x1390 ?x384 S_0 ?x1032) 0.0))))
 (let (($x25525 (<= (+ ?x362 L_2 A_3 ?x395 S_0 (* (- 1.0) Q_4) ?x432) 0.0)))
 (let (($x83382 (<= (+ (* (/ 1.0 3.0) Q_4) (* (- (/ 1.0 3.0)) A_4) (* (/ 1.0 3.0) L_3) ?x7534) (- 5.0))))
 (let (($x98792 (or $x985 (not (<= (+ (* (- 1.0) Q_4) A_4 ?x432 ?x1120 ?x1116 ?x3216) 0.0)) $x83382 $x84224)))
 (let (($x1135 (<= (+ A_2 ?x445 ?x384 (* (- 1.0) Q_4)) 0.0)))
 (let ((?x350 (* (- 1.0) Q_4)))
 (let ((?x1747 (+ ?x350 A_4 ?x358 ?x362 A_1 ?x458 L_2)))
 (let (($x78141 (<= 0.0 ?x1747)))
 (let (($x74786 (not $x78141)))
 (let (($x20923 (<= (+ ?x358 ?x1108 ?x947 ?x350 ?x1102 L_3) 0.0)))
 (let (($x14608 (<= (+ Q_4 ?x354 ?x1291 ?x1157 ?x1158 ?x1412 ?x1108 ?x3441 ?x1102) 0.0)))
 (let (($x100724 (or $x893 $x1012 (<= (+ ?x3202 ?x3191 ?x3200 ?x362 ?x3196 L_2) (- 5.0)) (<= (+ ?x1102 ?x350 A_4 ?x432 ?x1108 ?x1120 ?x1116) (- 15.0)))))
 (let (($x5754 (<= (+ ?x3774 L_3 ?x1398 A_1 ?x458) 0.0)))
 (let (($x5774 (not $x5754)))
 (let (($x214594 (or (<= (+ ?x350 A_4 L_3 ?x1412 ?x1108 ?x406 ?x1102) 0.0) $x5774 $x12281 $x79653)))
 (let (($x213722 (or $x5754 $x12281 (<= (+ ?x358 ?x1148 (* (- 2.0) S_1) ?x2385 ?x1149 L_3) 0.0) $x79653)))
 (let ((?x7546 (* (- (/ 2.0 3.0)) A_4)))
 (let ((?x7537 (* (/ 2.0 3.0) Q_4)))
 (let (($x214384 (or $x985 (<= (+ ?x7537 ?x7546 (* (/ 2.0 3.0) L_3) (* (/ 5.0 3.0) S_1) ?x947) 0.0) (<= (+ ?x2266 ?x3779 ?x1384 S_1 ?x947) 0.0) (<= (+ Q_4 ?x354 L_3 A_2 ?x445 S_1 ?x947) 0.0))))
 (let (($x19644 (<= (+ ?x358 A_1 L_3 S_4 ?x384 ?x350 ?x458) 0.0)))
 (let (($x213910 (or $x876 $x3206 $x20931 (<= 0.0 (+ ?x354 A_3 ?x366 S_3 ?x2266 L_1)))))
 (let ((?x88577 (+ ?x366 S_0 L_1)))
 (let (($x90914 (<= (- 5.0) ?x88577)))
 (let (($x31331 (<= (+ A_2 ?x445 A_1 ?x373 ?x406 ?x350 ?x458) 0.0)))
 (let (($x15019 (<= (+ ?x11004 (* (- (/ 1.0 2.0)) S_4) ?x406 (* (- (/ 3.0 2.0)) Q_4) ?x14759) 0.0)))
 (let (($x217262 (or $x5754 $x20923 (<= (+ ?x1045 ?x1041 ?x1412 A_1 ?x947 Q_4 ?x458 ?x1423) 0.0) $x79653)))
 (let (($x215222 (or (<= (+ ?x1412 ?x1108 ?x20961 ?x1423 (* 2.0 S_2) ?x6626 ?x1102) 0.0) $x79653)))
 (let (($x50489 (<= (+ ?x1412 ?x1108 ?x1423 (* 2.0 S_2) (* (- 2.0) S_1) ?x1102) 0.0)))
 (let (($x214367 (or $x876 (<= (+ ?x1102 ?x1108 S_4 (* (- 3.0) S_3)) 0.0) (<= (+ S_4 ?x3327 S_0) 0.0))))
 (let ((?x1729 (* 5.0 L_2)))
 (let ((?x1650 (* (- 5.0) A_2)))
 (let (($x1731 (<= (+ ?x350 A_4 ?x432 ?x1650 ?x1727 ?x947 ?x1728 ?x1729) 0.0)))
 (let (($x1151 (<= (+ ?x1039 ?x1032 ?x1148 ?x947 ?x350 ?x1149) 0.0)))
 (let ((?x1719 (* 4.0 L_2)))
 (let ((?x1705 (* (- 4.0) L_1)))
 (let ((?x1637 (* 4.0 A_1)))
 (let ((?x1611 (* (- 4.0) A_2)))
 (let (($x84259 (<= 0.0 (+ ?x354 ?x1384 ?x432 ?x395 Q_4))))
 (let (($x84260 (not $x84259)))
 (let (($x211462 (or $x985 (<= (+ Q_4 ?x354 L_3 ?x887 (* 2.0 S_2) L_0) 0.0) $x84260)))
 (let (($x99831 (or $x876 $x3206 $x5407 (<= (+ A_3 A_1 ?x432 ?x3327 ?x350 ?x458) 0.0) (<= (+ (* (/ 2.0 3.0) A_3) ?x384 ?x15665 ?x7533 ?x7298) 0.0))))
 (let (($x28209 (<= (+ ?x3202 ?x3191 ?x3200 ?x18214 ?x18410 ?x395 S_0) 0.0)))
 (let (($x1139 (<= (+ A_1 ?x395 ?x350 ?x458) 0.0)))
 (let (($x212273 (or $x985 (<= (+ Q_4 ?x354 L_3 (* 2.0 S_2) ?x406) 0.0) (<= (+ ?x2266 ?x3779 ?x1384 S_2 ?x406) 0.0))))
 (let (($x84471 (<= 0.0 (+ A_2 ?x445 ?x354 A_3 ?x366 Q_4 L_1))))
 (let (($x20964 (<= (+ A_3 (* (- 3.0) A_1) ?x3558 ?x2266 (* 3.0 L_1) ?x432) 0.0)))
 (let (($x1143 (<= (+ ?x362 L_2 ?x1108 ?x406 ?x350 ?x1102) 0.0)))
 (let (($x211595 (or $x893 $x1143 (<= (+ ?x350 A_4 ?x432 ?x1611 ?x1637 ?x406 ?x1705 ?x1719) 0.0))))
 (let ((?x756 (* 4.0 L_1)))
 (let ((?x1341 (* (- 4.0) A_1)))
 (let (($x220453 (or (<= (+ Q_4 ?x354 L_3 ?x1395 ?x1341 S_0 ?x756 ?x1386) 0.0) $x895 $x985 $x78141)))
 (let ((?x11169 (* (/ 3.0 2.0) L_1)))
 (let ((?x2625 (* (- (/ 3.0 2.0)) L_3)))
 (let ((?x11144 (* (- (/ 3.0 2.0)) A_1)))
 (let ((?x11623 (* (/ 3.0 2.0) A_3)))
 (let (($x98780 (or $x870 $x895 (<= (+ ?x11862 (* (- (/ 1.0 2.0)) S_4) S_2 ?x3207 ?x15138) 0.0))))
 (let (($x102203 (or $x985 (<= (+ ?x2382 (* (- 3.0) A_4) ?x1291 (* 4.0 S_3) ?x406) 0.0))))
 (let (($x90464 (or $x895 (<= (+ ?x358 ?x366 (* 2.0 S_2) ?x2266 L_1 L_3) 0.0) $x79653)))
 (let (($x101813 (or $x895 (<= (+ (* (- 3.0) A_1) S_3 ?x3558 ?x2382 (* 3.0 L_1)) 0.0))))
 (let ((?x5413 (+ ?x458 ?x2385 ?x3774 L_3 A_1 ?x1398)))
 (let (($x87054 (<= ?x5413 (- 15.0))))
 (let (($x84688 (<= (+ ?x350 A_4 L_3 A_2 ?x445 ?x1412) (- 10.0))))
 (let (($x83594 (<= (+ (* (- (/ 3.0 4.0)) Q_4) (* (/ 3.0 4.0) A_4) ?x7393 ?x358 ?x7382) (- 5.0))))
 (let (($x99361 (or $x1012 $x79653 (<= (+ ?x7533 ?x7550 (* (/ 1.0 3.0) L_3) ?x358 ?x7534) (- 5.0)) $x84688)))
 (let ((?x1718 (* 3.0 L_1)))
 (let ((?x1662 (* (- 3.0) A_1)))
 (let (($x220698 (or $x895 $x985 (<= (+ Q_4 ?x354 L_3 ?x1157 ?x1662 S_1 ?x1718 ?x1158) 0.0) $x78141)))
 (let ((?x3238 (+ ?x3202 ?x3191 ?x3200 ?x362 ?x3196 L_2)))
 (let (($x83587 (<= 0.0 ?x3238)))
 (let (($x219820 (or $x882 $x7365 (<= (+ (* (/ 1.0 3.0) A_3) ?x395 (* (/ 2.0 3.0) S_0) ?x7554 ?x7552) 0.0))))
 (let (($x1167 (<= (+ ?x362 L_2 ?x1108 ?x887 ?x350 L_0 ?x1102) 0.0)))
 (let (($x219946 (or $x893 $x1167 (<= (+ ?x350 A_4 ?x432 ?x1611 ?x1637 ?x887 L_0 ?x1705 ?x1719) 0.0))))
 (let (($x43160 (or $x870 (<= (+ ?x373 ?x3216 ?x947) 0.0) (<= (+ A_2 ?x373 ?x445 ?x21138 ?x3180) 0.0))))
 (let (($x102190 (or $x985 (<= (+ ?x2382 (* (- 3.0) A_4) ?x1291 (* 5.0 S_2) ?x3441) 0.0) (<= (+ ?x2382 (* (- 3.0) A_4) (* 3.0 A_3) S_2 ?x947) 0.0))))
 (let ((?x7561 (* (/ 1.0 3.0) L_3)))
 (let ((?x7560 (* (- (/ 1.0 3.0)) A_4)))
 (let ((?x7180 (* (/ 1.0 3.0) Q_4)))
 (let (($x212410 (or $x985 (<= (+ ?x7180 ?x7560 ?x7561 ?x887 (* (/ 4.0 3.0) S_1) L_0) 0.0) (<= (+ Q_4 ?x354 A_3 ?x887 S_1 L_0) 0.0) (<= (+ Q_4 ?x354 L_3 A_2 ?x445 ?x20961 ?x3216 ?x6626) 0.0))))
 (let (($x99463 (or $x17384 (<= (+ ?x1398 A_1 (* 2.0 S_4) ?x2266 ?x458 ?x1291) 0.0) $x79653)))
 (let (($x213367 (or $x5754 $x12550 (<= (+ ?x358 ?x1148 ?x20961 ?x2385 ?x6626 ?x1149 L_3) 0.0) $x79653)))
 (let (($x102171 (or $x1139 (<= (+ ?x2385 ?x3774 L_3 ?x1398 ?x1148 (* (- 2.0) S_2) ?x1149) 0.0) $x78141 $x79653)))
 (let (($x99159 (or $x5774 (<= (+ ?x350 A_4 L_3 ?x1412 ?x1108 ?x887 L_0 ?x1102) 0.0) $x12550 $x79653)))
 (let (($x220350 (or $x895 $x1012 (<= (+ ?x3202 ?x3191 ?x3200 ?x18214 ?x18410 ?x366 S_0 L_1) (- 5.0)))))
 (let (($x84843 (<= (+ ?x3207 (* (- (/ 1.0 2.0)) A_4) ?x3209 ?x366 (* (/ 3.0 2.0) S_2) L_1) (- 5.0))))
 (let (($x211728 (or $x895 $x985 $x84843 (<= (+ Q_4 ?x354 A_3 ?x366 S_2 L_1) (- 5.0)))))
 (let (($x218338 (or $x895 $x985 (<= (+ Q_4 ?x354 ?x432 ?x362 L_2 ?x1384 ?x1144 ?x3216 ?x1145) 0.0))))
 (let (($x11960 (<= (+ ?x350 A_4 L_3 A_2 ?x445 ?x1412 ?x1108 (* (- 2.0) S_2) ?x1102) 0.0)))
 (let (($x103953 (or $x895 (<= (+ ?x1341 S_4 (* 3.0 S_0) (* 4.0 Q_4) ?x756) 0.0))))
 (let (($x324 (<= 0.0 (+ ?x445 L_1))))
 (let (($x322 (not $x324)))
 (let (($x100540 (or (<= (+ Q_4 ?x354 L_3 ?x1045 ?x1144 S_2 ?x1145 ?x1041) 0.0) $x895 $x985 $x78141)))
 (let ((?x4173 (* (/ 3.0 2.0) S_2)))
 (let ((?x3208 (* (- (/ 1.0 2.0)) A_4)))
 (let ((?x3197 (* (/ 3.0 2.0) Q_4)))
 (let (($x15812 (<= (+ ?x3197 ?x3208 ?x3209 ?x366 ?x4173 L_1) 0.0)))
 (let (($x106658 (or $x895 $x985 $x15812 (<= 0.0 (+ ?x358 ?x366 (* 2.0 S_2) Q_4 L_1 L_3)))))
 (let (($x101049 (or $x895 $x985 (<= (+ ?x2266 ?x354 A_3 ?x366 S_2 L_1) 0.0) $x84259)))
 (let (($x98425 (or $x985 (<= (+ ?x1145 Q_4 ?x354 L_3 ?x1144 (* 3.0 S_2)) 0.0) (<= 0.0 ?x5413))))
 (let (($x29532 (or $x870 (<= (+ A_2 ?x887 ?x373 ?x445 S_1 L_0) 0.0) (<= (+ ?x887 (* (- (/ 1.0 2.0)) S_4) ?x19271 L_0) 0.0))))
 (let (($x84245 (not (<= 0.0 (+ (* (- (/ 3.0 2.0)) Q_4) (* (/ 3.0 2.0) A_4) ?x3209 ?x1412 ?x3196)))))
 (let (($x9059 (<= (+ ?x1045 ?x1041 ?x373 ?x395 ?x2385) 0.0)))
 (let (($x219358 (or $x895 $x985 (<= (+ ?x2266 ?x3779 ?x432 (* 3.0 A_3) ?x1662 ?x3216 ?x1718) 0.0))))
 (let (($x218868 (or (<= (+ ?x1412 ?x887 (* 3.0 S_2) ?x2266 L_0 ?x1423) 0.0) $x79653)))
 (let (($x23915 (or $x870 (<= (+ ?x887 (* (- 2.0) S_4) (* 3.0 S_2) L_0) 0.0))))
 (let (($x902 (<= (+ A_3 ?x373 ?x350 ?x432) 0.0)))
 (let (($x102957 (or $x902 (<= (+ ?x2385 ?x3774 ?x432 ?x358 A_1 (* (- 2.0) S_4) ?x458) 0.0) $x14133 $x79653)))
 (let (($x100895 (or $x895 $x985 (<= (+ ?x2266 ?x3779 L_3 A_3 ?x366 ?x3181 L_1) 0.0))))
 (let (($x101099 (or (<= (+ ?x350 A_4 ?x432 ?x1039 ?x1108 ?x384 ?x1102 ?x1032) 0.0) $x893 $x1135)))
 (let (($x101662 (or $x893 $x1139 (<= (+ ?x350 A_4 ?x432 ?x1120 ?x1148 ?x395 ?x1149 ?x1116) 0.0))))
 (let (($x3791 (<= (+ (* 4.0 Q_4) (* (- 4.0) A_4) ?x2712 (* 5.0 S_3) ?x947) 0.0)))
 (let (($x217469 (or $x895 $x985 (<= (+ Q_4 ?x354 L_3 A_2 ?x366 S_3 L_1 ?x445) 0.0))))
 (let (($x262 (<= 0.0 (+ ?x362 L_2 ?x354 ?x1384 ?x432))))
 (let (($x260 (not $x262)))
 (let (($x213662 (or $x260 (= (+ L_1 ?x350 A_4 ?x1423 ?x366 ?x1398 ?x1157 ?x1158) 0.0) $x79653 (not (<= 0.0 (+ ?x350 A_4 ?x1423 ?x1398 ?x1157 ?x366 L_1 ?x1158))))))
 (let (($x220012 (or $x262 (not (<= 0.0 (+ ?x1045 ?x1041 ?x358 ?x366 ?x350 L_1 L_3))) (= (+ L_1 ?x1045 ?x1041 ?x366 ?x358 ?x350 L_3) 0.0) $x79653)))
 (let (($x2703 (<= (+ ?x350 A_4 ?x2712 ?x2684 (* 5.0 A_2) ?x947 (* (- 5.0) L_2)) 0.0)))
 (let (($x83011 (<= 0.0 (+ ?x350 A_4 ?x1423 ?x1398 ?x1157 ?x366 L_1 ?x1158))))
 (let (($x83244 (or $x893 $x985 $x83011 (not (<= 0.0 (+ ?x3202 ?x3191 ?x3200 ?x1144 (* (/ 3.0 2.0) S_0) ?x1145))))))
 (let (($x83009 (<= 0.0 (+ ?x3202 ?x3191 ?x3200 ?x1144 (* (/ 3.0 2.0) S_0) ?x1145))))
 (let (($x2584 (<= (+ Q_4 ?x354 (* (- 3.0) L_3) (* 4.0 A_3) ?x1611 S_0 ?x1719) 0.0)))
 (let (($x220558 (or $x260 (<= (+ ?x350 A_4 ?x1291 ?x2632 ?x1395 ?x887 L_0 ?x1386) 0.0) $x79653)))
 (let (($x103712 (or $x324 $x985 (<= (+ Q_4 ?x354 ?x1390 (* 3.0 A_3) ?x1120 S_1 ?x1116) 0.0))))
 (let (($x102074 (or (<= (+ ?x358 S_3 Q_4 L_3) 0.0) (= (+ ?x445 L_3) 0.0))))
 (let (($x276 (<= 0.0 (+ ?x1045 ?x1041 ?x358 ?x366 ?x350 L_1 L_3))))
 (let (($x215086 (or $x324 (<= (+ ?x1039 ?x1032 A_3 A_1 (* (- 1.0) L_0) ?x432) 0.0) (not $x895))))
 (let (($x75263 (or (= Q_4 0.0) (not $x985))))
 (let (($x96 (>= S_1 S_0)))
 (let (($x99 (>= S_2 S_1)))
 (let (($x102 (>= S_3 S_2)))
 (let (($x105 (>= S_4 S_3)))
 (let (($x107 (>= A_1 A_0)))
 (let (($x108 (>= A_2 A_1)))
 (let (($x109 (>= A_3 A_2)))
 (let (($x110 (>= A_4 A_3)))
 (and $x110 $x109 $x108 $x107 $x105 $x102 $x99 $x96 (or (not (<= 0.0 (+ L_0 ?x458))) $x895) (or $x324 (<= (+ ?x362 L_2 S_2 Q_4) 0.0)) (or $x324 (<= (+ ?x362 L_2 A_1 ?x458) (- 5.0))) (or (= (+ L_3 ?x445) 0.0) $x80993) $x75263 (or $x324 (<= (+ ?x1039 ?x1032 A_3 S_1 Q_4 ?x432) 0.0)) (or $x895 (<= (+ ?x366 S_1 Q_4 L_1) 0.0)) (or $x324 $x895 (= (+ L_3 ?x358 ?x1045 ?x366 L_1 ?x1041) 0.0) $x79653) (or (<= (+ A_2 ?x445 ?x358 L_3) (- 5.0)) $x79653) (or $x262 $x1012 $x79653) (or $x262 (<= (+ ?x1045 ?x1041 ?x358 ?x395 ?x350 L_3) 0.0) $x79653) $x215086 (or $x262 $x902 $x79653) (or $x276 $x324 (<= (+ ?x1120 ?x1116 ?x1384 S_0 Q_4 ?x1390) 0.0)) (or $x262 (<= (+ ?x1157 ?x1158 ?x1412 ?x887 ?x350 L_0 ?x1423) 0.0) $x79653) (or $x262 (<= (+ ?x1157 ?x1158 ?x1412 ?x406 ?x350 ?x1423) 0.0) $x79653) (or $x262 (<= (+ ?x1395 ?x1386 ?x1398 ?x947 ?x350 ?x1291) 0.0) $x79653) (or (<= (+ A_2 ?x445 ?x1412 S_4 Q_4 ?x1423) 0.0) $x79653) (or $x1012 $x79653 (<= (+ ?x350 A_4 L_3 ?x1412 A_2 ?x445) (- 5.0))) (or $x1012 (<= (+ ?x350 A_4 ?x358 A_2 ?x373 ?x445) 0.0) $x79653) (or $x902 (<= (+ ?x350 A_4 ?x358 A_2 ?x373 ?x445) 0.0) $x79653) $x102074 $x103712 (or $x324 $x985 (<= (+ Q_4 ?x354 A_3 ?x362 S_3 L_2) 0.0)) (or $x322 $x893) (or $x893 $x985 (<= (+ Q_4 ?x354 ?x432 ?x1384 ?x1039 S_2 ?x1032) 0.0)) (or $x902 $x3678) (or $x79653 (<= (+ L_3 ?x358 S_3) (- 5.0))) (or $x1012 $x79653 (<= (+ ?x3202 ?x3191 ?x3209 ?x358 (* (/ 1.0 2.0) S_2)) (- 5.0))) (or $x985 (<= (+ Q_4 ?x354 L_3 S_3) (- 5.0))) (or $x1012 (<= (+ ?x350 A_4 ?x1423 ?x1398 ?x1157 ?x395 ?x1158) 0.0) $x79653) (or $x1012 $x2703 $x79653) (or $x260 (<= (+ ?x350 A_4 ?x1423 ?x1398 ?x1157 ?x395 ?x1158) 0.0) $x79653) (or $x1135 (<= (+ ?x350 A_4 L_3 ?x1412 ?x1045 ?x384 ?x1041) 0.0) $x79653) (or $x260 (<= (+ ?x350 A_4 ?x1291 ?x2632 ?x1395 ?x406 ?x1386) 0.0) $x79653) $x220558 (or $x893 $x985 $x2584 $x83009) $x83244 (or $x260 $x2703 $x79653) $x220012 $x213662 (or $x893 (<= (+ ?x362 S_2 L_2) (- 5.0))) (or $x893 (<= (+ ?x1039 A_1 S_3 ?x458 ?x1032) (- 5.0))) (or $x893 (<= (+ ?x1039 ?x1032 A_1 S_3 Q_4 ?x458) 0.0)) (or $x895 (<= (+ ?x366 S_1 L_1) (- 5.0))) (or $x893 (<= (+ ?x1039 L_2 A_3 A_1 ?x458) 0.0) $x80993) (or $x870 $x7539 $x83712) (or $x870 $x893 $x895 $x1055 $x1721) $x217469 (or $x893 (<= (+ ?x1039 ?x1108 S_1 ?x947 ?x1102 ?x1032) 0.0)) (or $x893 (<= (+ ?x1120 ?x1116 ?x1108 S_4 Q_4 ?x1102) 0.0)) (or $x895 (<= (+ A_2 ?x445 ?x1144 S_0 Q_4 ?x1145) 0.0)) (or $x870 $x1012 $x3678) (or $x870 $x1135 $x3678) (or $x895 $x985 (<= (+ Q_4 ?x354 A_3 ?x366 S_2 L_1) 0.0)) (or $x985 $x3791) (or $x870 $x1139 $x7359 $x83587) (or $x893 $x1012 (<= (+ ?x7554 ?x7558 ?x7552 ?x362 ?x7191 L_2) (- 5.0))) (or $x893 $x985 (<= (+ Q_4 ?x354 L_3 ?x362 ?x3181 L_2) (- 5.0))) (or $x870 $x1139 $x14133 (not $x83587)) (or (<= (+ ?x1412 S_4 S_2 ?x2266 ?x1423) 0.0) $x79653) (or $x870 (<= (+ ?x373 S_2) (- 5.0))) $x101662 (or $x893 (<= (+ ?x358 ?x362 A_1 L_3 S_4 ?x458 L_2) 0.0)) $x101099 $x100895 (or $x870 $x1012 $x7539 $x14133) $x102957 (or $x902 $x5331 $x14133 (not $x83587)) (or (<= (+ ?x358 A_1 L_3 S_3 ?x395 ?x458) 0.0) $x79653) (or $x870 $x876 $x7539 $x20931) (or $x876 $x1012 $x7289) (or $x895 (<= (+ A_2 ?x366 ?x384 S_1 L_1 ?x445) 0.0)) (or $x895 (<= (+ A_3 ?x366 ?x373 ?x445 S_1 L_1) 0.0) $x80993) (or $x902 $x7539 $x14133) (or $x902 $x5331 $x7359 $x14133) (or $x893 (<= (+ ?x1039 ?x1108 ?x887 S_2 L_0 ?x1102 ?x1032) 0.0)) (or $x893 $x1135 $x84471) (or $x895 (<= (+ ?x1045 ?x1144 ?x384 S_0 ?x1145 ?x1041) 0.0)) (or $x876 $x1012 $x10718) (or $x1135 $x10718) $x23915 (or $x870 $x1012 $x5331 $x14133 (not $x83587)) (or (<= (+ ?x1412 (* 3.0 S_2) ?x406 ?x2266 ?x1423) 0.0) $x79653) $x218868 (or $x893 (<= (+ ?x1120 ?x1148 S_2 ?x947 ?x1149 ?x1116) 0.0)) (or $x893 (<= (+ A_3 ?x362 ?x432 ?x373 S_2 L_2) 0.0)) (or $x882 $x1012 (<= (+ ?x350 A_4 ?x358 ?x395 S_0) 0.0)) (or $x882 $x1012 $x7365) (or $x79653 (<= (+ ?x358 S_2 Q_4 L_3) (- 5.0))) $x219358 (or $x985 (<= (+ Q_4 ?x354 L_3 ?x362 L_2 ?x3181) 0.0)) (or $x870 $x11797 (<= (+ (* (- (/ 1.0 2.0)) S_4) ?x21138) (- 5.0))) (or $x882 (<= (+ ?x395 S_0) (- 5.0))) (or $x893 (<= (+ ?x362 A_1 ?x887 S_1 L_0 ?x458 L_2) 0.0)) (or $x870 $x7539 $x9059) (or $x870 $x5331 $x9059 $x84245) (or $x895 (<= (+ ?x366 S_0 Q_4 L_1) (- 5.0))) $x29532 $x98425 (or $x870 (<= (+ ?x15138 ?x11862 (* (- (/ 1.0 2.0)) S_4) S_2) 0.0)) (or $x876 $x1012 $x3206 $x5407) (or $x895 $x79653 (<= 0.0 ?x7075)) (or $x870 $x3678 $x9057) (or $x893 $x1143 $x84471) $x101049 $x106658 (or $x895 $x985 $x15812 $x84260) (or $x893 $x1012 $x84471) (or $x1135 $x7289) (or $x893 $x1167 $x84471) (or $x876 $x19638 $x23482) (or $x895 (<= (+ ?x1144 S_2 S_0 ?x2266 ?x1145) 0.0)) (or $x985 (<= (+ ?x2266 ?x3779 ?x1384 ?x887 S_2 L_0) 0.0) $x84259) (or $x876 (<= (+ ?x384 S_1) (- 5.0))) (or $x882 (<= (+ (* (/ 1.0 3.0) S_3) ?x395 (* (/ 2.0 3.0) S_0)) 0.0)) (or $x882 (<= (+ S_4 (* (- 4.0) S_2) (* 3.0 S_0)) 0.0)) (or $x985 (<= (+ ?x2266 ?x3779 ?x1423 ?x3781 ?x395) 0.0)) (or $x876 (<= (+ (* (/ 1.0 3.0) S_4) ?x384 ?x7191) 0.0)) (or $x893 $x1012 (<= (+ ?x350 A_4 ?x432 ?x1120 ?x1108 ?x1102 ?x1116) (- 5.0))) (or $x893 (<= (+ ?x1039 ?x1108 S_2 ?x406 ?x1102 ?x1032) 0.0)) (or $x876 $x19672 $x23482) (or $x895 (<= (+ ?x358 ?x366 L_3 S_4 S_0 Q_4 L_1) 0.0)) (or $x876 $x895 $x20931 $x23482) $x100540 (or $x870 $x876 $x3678 $x20931) (or $x870 $x876 $x3678 $x19638) (or $x870 $x876 $x3678 (<= (+ ?x1108 ?x384 ?x406 ?x2385 ?x1102) 0.0)) (or $x870 $x876 $x895 $x7359 $x20931) (or $x895 (<= (+ A_2 ?x1144 S_0 ?x1145 ?x445) (- 5.0))) (or $x895 (<= (+ ?x366 (* (/ 1.0 2.0) S_2) ?x3196 L_1) (- 5.0))) (or $x322 $x870 $x895 (<= (+ A_2 ?x366 ?x373 S_2) 0.0)) (or $x895 $x1012 (<= (+ ?x7389 ?x7383 ?x7356 ?x366 ?x7371 L_1) (- 5.0))) $x103953 (or $x1139 $x7365) (or $x876 $x1139 $x3206) (or $x1012 $x78141 $x79653 (<= (+ ?x2385 ?x3774 L_3 ?x1398 A_1 ?x458) (- 10.0))) (or $x895 (<= ?x88577 (- 10.0))) (or $x893 $x1135 $x1721) (or $x893 (<= (+ ?x1039 ?x1032 S_3 S_1 ?x2266) 0.0)) (or $x893 (<= (+ ?x362 L_2 ?x358 L_3 S_4 S_1 Q_4) 0.0)) (or $x876 $x7289 (<= (+ ?x9029 ?x384 ?x21138 ?x3202 ?x3200) 0.0)) (or $x1139 $x11960 $x74786 $x79653) $x218338 (or $x1012 $x74786 $x79653 $x84688) (or $x893 $x1012 $x1721) $x211728 (or $x895 $x1012 (<= (+ ?x350 A_4 ?x358 ?x366 S_0 L_1) (- 5.0))) (or $x870 $x895 (<= (+ ?x1045 ?x1144 ?x373 S_1 ?x1145 ?x1041) 0.0)) (or $x893 $x1151 $x84471) (or $x870 $x1012 $x5331 $x7359 $x83587) (or $x882 (<= (+ ?x362 S_3 L_2 ?x395 S_0) 0.0)) (or $x985 (<= (+ L_1 ?x2266 ?x3779 ?x1423 ?x366 ?x3781) 0.0)) (or $x876 $x1012 $x5738 $x79653) $x220350 (or $x882 $x1012 $x28209) (or $x895 $x985 (<= (+ Q_4 ?x354 ?x432 ?x1384 ?x1144 S_0 ?x1145) 0.0)) $x99159 $x102171 $x213367 $x99463 (or $x876 $x7289 $x20931) (or $x876 $x10718 $x19644) (or $x876 $x10718 $x20931) (or $x876 $x1139 $x23482) (or $x870 $x895 (<= (+ ?x1157 ?x1662 ?x373 S_0 ?x1718 ?x1158) 0.0)) (or $x1139 (<= (+ ?x350 A_4 ?x358 ?x395 S_0) 0.0)) (or $x882 (<= (+ ?x350 A_4 ?x358 ?x395 S_0) 0.0) $x40185) $x212410 (or $x876 (<= (+ ?x887 ?x384 ?x3216 L_0) 0.0)) (or $x870 (<= (+ (* (- 2.0) S_4) (* 3.0 S_2) ?x406) 0.0)) $x102190 (or $x79653 (<= (+ L_3 ?x358 A_1 ?x458) (- 10.0))) $x43160 (or $x893 $x902 $x1721) $x219946 (or $x876 $x23482 (<= (+ A_1 ?x384 ?x350 ?x458) (- 5.0))) (or $x893 (<= (+ ?x362 L_2 ?x887 ?x3216 Q_4 L_0) 0.0)) $x219820 (or $x1012 $x79653 $x83587 $x83594 $x87054) $x220698 (or $x893 (<= (+ ?x362 L_2 S_1 Q_4) (- 5.0))) $x99361 (or $x1012 $x79653 $x83594 $x84688 $x87054) $x101813 (or $x895 (<= (+ ?x362 L_2 ?x366 S_3 S_0 Q_4 L_1) 0.0)) $x90464 (or $x895 $x985 (<= (+ ?x2266 ?x3779 ?x1423 ?x366 ?x3781 L_1) (- 5.0))) $x102203 (or $x893 (<= (+ ?x1039 ?x1108 S_3 ?x395 ?x1102 ?x1032) 0.0)) (or $x876 $x5738 $x20931 $x79653) $x98780 (or $x870 $x1139 $x7539 $x14133) (or $x870 $x895 $x1055 $x7539) (or $x870 $x3678 $x9064) (or $x895 (<= (+ A_3 ?x366 ?x432 ?x373 S_1 L_1) 0.0)) (or $x895 (<= (+ ?x11623 ?x11144 ?x2625 ?x373 S_0 ?x11169) 0.0)) $x220453 (or $x893 (<= (+ ?x1039 ?x1032 (* 3.0 S_1) ?x947 ?x2266) 0.0)) (or $x870 $x2371 $x7539) (or $x870 $x876 $x7539 $x19672) (or $x876 $x7289 $x20891) (or $x870 $x876 $x7359 $x19638) $x211595 (or $x895 $x20964) (or $x895 (<= (+ A_3 ?x362 ?x366 ?x432 L_2 S_0 L_1) 0.0)) (or $x870 $x895 (<= (+ A_2 ?x366 ?x373 S_2 L_1 ?x445) 0.0)) (or $x893 $x1139 $x84471) $x212273 (or $x1139 $x28209) (or $x870 $x2371 $x3678) (or $x985 (<= (+ Q_4 ?x354 A_3 ?x366 S_2 L_1) 0.0) $x84259) (or $x985 (<= (+ Q_4 ?x354 L_3 S_2) (- 10.0)) $x84224) (or $x870 $x1135 $x7539) (or $x876 $x895 (<= (+ A_3 ?x366 ?x3327 ?x3216 L_1 ?x445) 0.0) $x80993) $x99831 $x211462 (or $x870 $x3678 $x15019 $x31331) (or $x895 (<= (+ A_2 ?x366 ?x395 S_0 L_1 ?x445) 0.0)) (or $x893 $x1012 $x1731) (or $x893 (<= (+ ?x1611 ?x1637 S_3 ?x947 ?x1705 ?x1719) 0.0)) (or $x893 $x1151 $x1731) $x214367 (or $x882 (<= (+ ?x358 L_3 S_4 ?x395 S_0) 0.0)) (or $x893 $x1012 (<= (+ ?x350 A_4 ?x358 ?x362 S_1 L_2) (- 5.0))) (or $x876 $x1012 $x5738 $x23482) (or $x50489 $x79653) (or $x876 $x1139 $x10718) $x215222 (or $x870 $x876 $x7539 (<= (+ A_1 ?x384 ?x350 ?x458) (- 5.0))) (or $x870 (<= (+ (* (- 3.0) S_4) (* 4.0 S_2) ?x947) 0.0)) $x217262 (or $x870 $x7539 $x14133 $x14764 $x34370) (or $x870 $x876 $x7539 $x19638) (or $x870 $x7359 $x14133 $x15019 $x31331) (or $x876 $x3206 (<= (+ A_1 ?x384 ?x350 ?x458) (- 5.0))) (or $x870 $x882 $x7359 $x9059) (or $x893 (<= (+ ?x1120 ?x1116 S_4 ?x3216 ?x2382) 0.0)) (or $x876 (<= (+ ?x458 A_1 ?x384) (- 5.0)) (not $x90914)) (or $x876 (<= (+ (* (- (/ 1.0 2.0)) S_3) ?x3196) (- 5.0)) $x90914) (or $x876 (<= (+ ?x3327 (* 3.0 S_1) ?x947) 0.0)) (or $x870 $x3678 $x83712) (or $x870 $x876 $x3678 $x19672) (or $x876 $x3206 $x19672) (or $x876 $x7289 $x19672) $x213910 (or $x882 $x25525 $x28209) (or $x870 $x876 $x7359 (<= (+ A_1 ?x384 ?x350 ?x458) (- 5.0))) (or $x876 $x19644 $x23482) (or $x870 $x3678 (<= (+ A_1 ?x384 ?x350 ?x458) (- 5.0))) (or $x870 $x7539 $x11797 $x85040) (or $x876 (<= (+ ?x358 L_3 S_4 ?x384 S_1) 0.0)) $x214384 (or $x985 $x5754 $x14608 $x20923 $x79653) $x213722 (or $x985 $x5737 $x20923 $x78141 $x79653) $x214594 $x100724 (or $x876 $x7289 (<= (+ A_1 ?x384 ?x350 ?x458) (- 5.0))) (or $x876 $x1139 $x7289) (or $x985 $x14608 $x20923 $x74786 $x79653) (or $x870 $x1135 $x5407 $x7359) (or $x870 $x3678 $x15155 $x34397) (or $x870 $x7359 $x15155 $x34397) (or $x870 $x895 $x1055 $x3678) $x98792 (or $x870 $x3678 $x14764 $x34370) (or $x870 $x7539 $x9057) (or $x882 $x893 $x25525) (or $x893 (<= (+ A_3 ?x362 ?x432 ?x384 S_1 L_2) 0.0)) $x213609 (or (<= ?x21431 0.0) $x79653) (or $x893 (<= (+ A_3 ?x1039 ?x432 S_1 ?x1032) (- 5.0))) (or $x870 $x7359 $x11797 $x85040) (or $x870 $x7359 $x14133 $x14764 $x34370) (or $x876 $x10718 (<= (+ A_1 ?x384 ?x350 ?x458) (- 5.0))) (or $x876 $x10718 $x20891) (or $x895 (<= (+ ?x362 L_2 ?x1144 S_4 ?x3558 ?x2266 ?x1145) 0.0)) (or $x882 (<= (+ ?x362 L_2 S_4 (* (- 2.0) S_2) ?x3558) 0.0)) (or $x870 $x2371 $x5331 $x7359) (or $x1135 $x3206 $x5407) (or $x870 $x895 (<= (+ ?x366 ?x373 (* 2.0 S_2) L_1) (- 5.0))) (or $x876 $x7289 $x19638) (or $x876 $x3206 $x19638) (or $x876 $x10718 $x19638) (or $x870 $x7539 $x14133 $x15155 $x34397) $x215077 (or $x876 $x20891 $x23482) (or $x876 $x3206 $x20891) (or $x893 $x1721 $x83712) (or $x882 $x7365 $x40185) (or $x985 $x3806) $x216814 (or $x893 $x80993 (<= (+ A_3 ?x1039 A_1 ?x458 L_2) (- 5.0)) $x94561) $x101623 (or $x870 $x3678 $x85040) (or $x876 (<= (+ ?x1108 ?x384 ?x406 ?x2385 ?x1102) 0.0) $x23482) (or $x876 $x3206 (<= (+ ?x1108 ?x384 ?x406 ?x2385 ?x1102) 0.0)) (or $x876 $x895 $x3206 $x20931) (or $x870 $x876 $x7359 (<= (+ ?x1108 ?x384 ?x406 ?x2385 ?x1102) 0.0)) (or $x1135 $x5738 $x23482) (or $x870 $x876 $x7359 $x19672) (or $x870 $x895 $x1055 $x7359) (or $x870 $x11797 (<= (+ (* (- (/ 1.0 3.0)) S_4) ?x15665) (- 5.0)) $x88475) (or $x870 $x7539 $x9064) (or $x876 $x10718 $x19672) (or $x870 $x7359 $x83712 $x88475) (or $x79653 $x85421 (<= (+ ?x11802 ?x21138 ?x3207 ?x3209) (- 5.0))) (or $x895 $x985 (<= (+ ?x2382 ?x3779 ?x1423 ?x366 ?x3781 L_1) 0.0)) $x219549 (or $x870 $x893 $x1721 $x9064) (or $x870 $x5331 $x7359 $x9064) (or $x870 $x893 $x1721 $x2371) (or $x870 $x893 $x1721 $x9045) (or $x870 $x893 $x1721 $x9059) (or $x870 $x3678 $x9045) (or $x870 $x893 $x1721 $x9057) $x107390 (or $x893 (<= (+ ?x458 ?x1039 ?x1032 A_1 S_3 ?x2266) 0.0) $x39556) $x213773 (or $x870 $x876 $x5331 $x7359 $x20931) (or $x870 $x5331 $x7359 $x9057) $x102263 $x101795 (or $x37728 $x79653) $x220667 (or $x79653 $x85421 $x86874 (<= (+ ?x458 A_1 ?x358 Q_4 L_3) (- 10.0))) (or $x17384 $x25006 $x39289 $x79653) (or $x12550 (<= (+ ?x1398 ?x1148 ?x20961 ?x1291 ?x3181 ?x6626 ?x1149) 0.0) $x79653) $x213542 $x215085 (or $x895 (<= (+ ?x1384 ?x1144 ?x1390 ?x3327 ?x3558 ?x1145) 0.0)) $x211648 $x100046 (or $x50464 $x79653 $x84490) $x215667 (or $x12281 $x57526 $x79653) (or $x893 $x985 (<= (+ ?x2266 ?x354 L_3 ?x362 ?x3181 L_2) 0.0)) (or $x870 $x895 (<= (+ ?x9029 ?x11862 ?x3200 ?x373 S_2 ?x15138) 0.0)) (or $x893 $x61142) (or $x893 $x36588 $x62085) (or $x870 $x5331 $x7359 $x9045) (or $x893 $x36704 $x40809) (or $x893 $x36704 (<= (+ ?x18214 ?x18410 ?x358 L_3 S_4 ?x3196 ?x3207) 0.0)) (or $x895 (<= (+ ?x9029 ?x11862 ?x3200 ?x395 S_0 ?x15138) 0.0)) (or $x12281 $x58696 $x79653) (or $x893 $x94561 $x96725) (or $x893 (<= ?x7075 (- 5.0)) (not $x96725)) (or (<= (+ ?x1412 ?x1045 ?x1423 S_2 ?x406 ?x1041) 0.0) $x79653) $x214846 (or $x876 $x3206 $x5407 $x20931) $x216773 $x219152 (or $x12281 $x50464 $x79653) (or $x1012 $x5737 $x12281 $x79653) (or $x876 $x5738 $x20931 $x23482) (or $x893 (<= (+ ?x362 S_1 L_2) (- 10.0))) $x217709 (or (<= (+ ?x1398 ?x1157 ?x1291 S_3 ?x406 ?x1158) 0.0) $x79653) (or $x893 (<= (+ ?x1120 ?x1148 ?x887 S_3 L_0 ?x1149 ?x1116) 0.0)) (or (<= (+ ?x1398 ?x1157 ?x1291 S_2 ?x947 ?x1158) 0.0) $x79653) $x213610 $x219687 (or $x13085 $x57526 $x79653) (or $x1012 $x5737 $x13085 $x79653) (or $x13085 $x48606 $x79653) (or $x876 $x48606 $x79653) (or (<= (+ ?x1412 ?x1045 ?x887 ?x1423 S_2 L_0 ?x1041) 0.0) $x79653) (or (<= (+ ?x1398 ?x1157 ?x887 ?x1291 S_3 L_0 ?x1158) 0.0) $x79653) (or (<= (+ ?x2632 ?x1395 ?x2712 S_3 ?x947 ?x1386) 0.0) $x79653) (or $x893 (<= (+ ?x362 ?x887 ?x3216 L_0 L_2) (- 5.0))) (or (<= ?x36377 0.0) $x79653) (or $x48606 $x79653 $x84490) (or $x1012 $x5737 $x12550 $x79653) (or $x12550 $x50464 $x79653) (or $x12550 $x57526 $x79653) $x220650 $x212085 (or $x79653 (<= ?x36377 (- 5.0)) (<= (+ ?x358 L_3 ?x3216 ?x947) (- 5.0))) (or $x876 $x50464 $x79653) (or $x893 $x97771) $x214562 (or $x13093 $x48606 $x79653) (or $x1012 $x5737 $x13093 $x79653) (or $x13093 $x57526 $x79653) (or $x57526 $x79653 $x84490) (or $x893 $x88627) (or $x893 (<= (+ ?x1120 ?x1148 S_3 ?x406 ?x1149 ?x1116) 0.0)) (or $x12550 $x48606 $x79653) (or $x12550 (<= (+ ?x358 A_1 ?x20961 L_3 ?x3216 ?x6626 ?x458) 0.0) $x79653) (or $x876 $x1012 $x5737 $x79653) (or $x79653 (<= ?x21431 (- 5.0)) $x94104) (or $x1012 $x5737 $x79653 $x84490) (or $x79653 $x96663) (or $x13093 $x50464 $x79653) (or $x79653 $x97983) $x34 (<= (+ ?x887 S_0 L_0) 0.0) (<= (+ ?x358 L_3 S_3) 0.0) (<= (+ Q_4 ?x354 L_3 S_4) 0.0) (<= (+ ?x366 S_1 L_1) 0.0) (<= (+ ?x362 S_2 L_2) 0.0))))))))))))))))))))))))))))))))))))))))))))))))))))))))))))))))))))))))))))))))))))))))))))))))))))))))))))))))))))))))))))))))))))))))))))))))))))))))))))))))))))))))))))))))))))))))))))))))))))))))))))))))))))))))))))))))))))))))))))))))))))))))))))))))))))))))))))))))))))))))))))))))))))))))))))))))))))))))))))))))))))))
(check-sat)
